num_features = 5;
num_usage_limits = 4;
num_plans = 3;
num_addons = 0;

features = ["posts", "pages", "workspaces", "advancedFeatures", "realTimeCustomerSupport"];
usage_limits = ["usersLimit", "postsLimit", "pagesLimit", "workspacesLimit"];
plans = ["STARTER", "PREMIUM", "ENTERPRISE"];
addons = [];

plans_prices = [24.0,99.0,1000000000000.0];
addons_prices = [];

plans_features = array2d(PLANS, FEATURES, [
    % STARTER
    1,0,1,0,0,
    % PREMIUM
    1,1,1,0,0,
    % ENTERPRISE
    1,1,1,1,1
]);
plans_usage_limits = array2d(PLANS, USAGE_LIMITS, [
    % STARTER
    3,1000000000000,1000000000000,1,
    % PREMIUM
    7,1000000000000,1000000000000,5,
    % ENTERPRISE
    1000000000000,1000000000000,1000000000000,1000000000000
]);

linked_features = array2d(USAGE_LIMITS, FEATURES, [
    % usersLimit
    0,0,0,0,0,
    % postsLimit
    1,0,0,0,0,
    % pagesLimit
    0,1,0,0,0,
    % workspacesLimit
    0,0,1,0,0
]);

addons_features = array2d(ADDONS, FEATURES, [
]);
addons_usage_limits = array2d(ADDONS, USAGE_LIMITS, [
]);
addons_usage_limits_extensions = array2d(ADDONS, USAGE_LIMITS, [
]);
addons_available_for = array2d(ADDONS, PLANS, [
]);

addons_depends_on = array2d(ADDONS, ADDONS, [
]);